47 480
4 5 7 8 14 20 21 22 24 25 26 27 36 39 40
2 3 4 9 10 11 13 14 16 17 18 20 21 23 25 29 31 32 33 34 35 37 38 40 43
1 4 9 14 16 17 18 19 21 22 25 26 27 29 30 33 35 37 38 39 41 42 43
1 4 7 9 10 12 15 18 19 23 24 26 33 37 40 42 45
0 1 2 3 5 7 9 12 14 15 20 21 23 26 27 28 30 31 34 35 38 39 40 44 45
0 4 6 9 11 16 18 20 25 26 27 35 37 39 40 42 43
5 7 9 12 16 19 20 21 25 26 28 31 34 36 37 41 43 45
0 3 4 6 9 10 11 18 19 22 23 24 26 27 28 30 31 33 34 35 36 38 41 42 44
0 10 11 13 15 16 21 22 23 25 28 29 30 32 33 34 36 37 38 39 42 43
1 2 3 4 5 6 7 10 11 12 13 16 17 21 22 23 24 25 28 32 38 39 40
1 3 7 8 9 14 15 16 18 19 20 22 23 24 27 29 30 31 32 33 34 35 37 38 39 41 42 43 46
1 5 7 8 9 15 17 18 22 23 24 26 29 30 31 35 38 40 42 43 45 46
3 4 6 9 13 15 16 18 21 26 28 30 31 32 33 36 37 38 42 44 45
1 8 9 12 14 16 22 23 26 27 28 30 31 34 41 43 45 46
0 1 2 4 10 13 18 21 23 24 25 26 28 29 31 32 36 39 40 41 42
3 4 8 10 11 12 17 18 19 20 21 24 27 28 30 33 36 37 40 42 46
1 2 5 6 8 9 10 12 13 18 24 25 27 28 29 32 33 34 35 36 42 44 45 46
1 2 9 11 15 18 19 20 30 31 32 34 39 40 42
1 2 3 5 7 10 11 12 14 15 16 17 23 25 28 29 30 33 35 36 41 42 43 44
2 3 6 7 10 15 17 20 21 22 23 25 27 28 29 31 35 36 39 42 44 45
0 1 4 5 6 10 15 17 19 21 23 24 25 26 27 28 30 33 38 42 45
0 1 2 4 6 8 9 12 14 15 19 20 24 25 30 32 34 35 36 39 40 42 44
0 2 7 8 9 10 11 13 19 24 26 27 30 35 36 40 41
1 3 4 7 8 9 10 11 13 14 18 19 20 30 36 39 42 43 46
0 3 7 9 10 11 14 15 16 20 21 22 34 35 40 41 46
0 1 2 5 6 8 9 14 16 18 19 20 21 26 27 28 30 31 32 35 40 41
0 2 3 4 5 6 7 11 12 13 14 20 22 25 31 32 34 38 41
0 2 4 5 7 10 13 15 16 19 20 22 25 28 29 33 34 37 38 39 40 42 44 46
4 6 7 8 9 12 13 14 15 16 18 19 20 25 27 31 34 37 39 40 41 43 45 46
1 2 8 10 11 14 16 18 19 27 30 33 35 37 39 40 42 46
2 4 7 8 10 11 12 13 15 17 18 20 21 22 23 25 29 32 33 34 35 37 40 43
1 4 6 7 10 11 12 13 14 17 19 25 26 28 33 34 35 36 37 41 44 46
1 8 9 10 12 14 16 17 21 25 26 30 35 39 42
1 2 3 7 8 10 12 15 16 18 20 27 29 30 31 37 40 44
1 4 6 7 8 10 13 16 17 21 24 26 27 28 30 31 35 37 39 43 44
1 2 4 5 7 10 11 16 18 19 21 22 24 25 29 30 31 32 34 39 40 42 44 45 46
0 6 7 8 12 14 15 16 18 19 21 22 23 31 39 40 41 43 44 45
1 2 3 5 6 8 10 12 15 27 28 29 30 31 33 34 40 41 46
1 2 4 7 8 9 10 11 12 20 26 27 39 41 42 45
0 2 4 5 8 9 10 14 17 19 21 23 27 28 29 32 34 35 36 38 40 41 44 45
0 1 3 4 5 9 11 14 15 17 21 22 24 25 27 28 29 30 33 35 36 37 39 42 46
2 6 7 10 13 14 18 22 24 25 26 28 31 36 37 38 39
2 3 5 7 8 10 11 12 14 15 16 17 18 19 20 21 23 27 29 32 35 38 40
1 2 5 6 8 10 11 13 18 23 28 30 34 36 44
4 7 12 16 18 19 21 27 31 33 34 35 36 39 43 45
3 4 6 11 12 13 16 19 20 28 35 36 38 39 44
10 11 13 15 16 23 24 27 28 29 31 35 37 40
